instances/p1/p1_6_5-1.dzn
Alphabet = {A,C,G,T};
ns = 6;
nc = 5;
neighbours = [| I(A),I(A),I(C),I(A),I(C) | I(A),I(A),I(A),I(G),I(A) | I(C),I(G),I(C),I(A),I(A) | I(A),I(A),I(A),I(A),I(A) | I(C),I(A),I(C),I(A),I(A) | I(A),I(A),I(A),I(A),I(A) |];
