instances/p1/p1_6_5-1.txt
{
	"num_strings": 6,
	"alphabet": "ACGT",
	"strings": [
		"AACAC",
		"AAAGA",
		"CGCAA",
		"AAAAA",
		"CACAA",
		"AAAAA"
	],
	"str_length":[5,5,5,5,5,5]
}